 vasp.6.4.3 19Mar24 (build Jul  4 2024 16:21:58) complex
 executed on             LinuxGNU date 2024.10.04  20:07:41

 INCAR:
   ENCUT = 600.000000
   SIGMA = 0.050000
   EDIFF = 1.00e-05
   EDIFFG = -1.00e-02
   GGA = PE
   PREC = Accurate
   IBRION = 2
   ISIF = 3
   ISMEAR = 0
   ISYM = 2
   NSW = 500
   NCORE = 20
   LCHARG = .FALSE.
   LWAVE = .FALSE.
   LREAL = .FALSE.

 POTCAR:    PAW_PBE Si 05Jan2001
 POTCAR:    PAW_PBE Si 05Jan2001
   VRHFIN =Si: s2p2

   TITEL  = PAW_PBE Si 05Jan2001
   POMASS =   28.085; ZVAL   =    4.000    mass and valenz
   ENMAX  =  245.345; ENMIN  =  184.009 eV

  PAW_PBE Si 05Jan2001                  :

 POSCAR: Si
  positions in cartesian coordinates

 exchange-correlation table for PE
   RHO(1)=    0.500       N(1)  =     2000
   RHO(2)=  100.500       N(2)  =     4000

 ion  position               nearest neighbor table
   1  0.000  0.000  0.000-   2 2.36   2 2.36   2 2.36   2 2.36
   2  0.250  0.250  0.250-   1 2.36   1 2.36   1 2.36   1 2.36

  LATTYP: Found a face centered cubic cell.
 ALAT       =     5.4437023700

  Lattice vectors:

 A1 = (   0.0000000000,   2.7218511850,   2.7218511850)
 A2 = (   2.7218511850,   0.0000000000,   2.7218511850)
 A3 = (   2.7218511850,   2.7218511850,   0.0000000000)

Analysis of symmetry for initial positions (statically):
 Subroutine PRICEL returns:
 Original cell was already a primitive cell.

 Routine SETGRP: Setting up the symmetry group for a
 face centered cubic supercell.

 Subroutine GETGRP returns: Found 48 space group operations
 (whereof 24 operations were pure point group operations)
 out of a pool of 48 trial point group operations.

The static configuration has the point symmetry T_d .
 The point group associated with its full space group is O_h .

Analysis of symmetry for dynamics (positions and initial velocities):
 Subroutine PRICEL returns:
 Original cell was already a primitive cell.

 Routine SETGRP: Setting up the symmetry group for a
 face centered cubic supercell.

 Subroutine GETGRP returns: Found 48 space group operations
 (whereof 24 operations were pure point group operations)
 out of a pool of 48 trial point group operations.

The dynamic configuration has the point symmetry T_d .
 The point group associated with its full space group is O_h .

 Subroutine INISYM returns: Found 48 space group operations
 (whereof 24 operations are pure point group operations),
 and found     1 'primitive' translations

                                     Primitive cell

  volume of cell :      40.3295

  direct lattice vectors                    reciprocal lattice vectors
     0.000000000  2.721851185  2.721851185    -0.183698507  0.183698507  0.183698507
     2.721851185  0.000000000  2.721851185     0.183698507 -0.183698507  0.183698507
     2.721851185  2.721851185  0.000000000     0.183698507  0.183698507 -0.183698507

  length of vectors
     3.849278861  3.849278861  3.849278861     0.318175148  0.318175148  0.318175148

  position of ions in fractional coordinates (direct lattice)
     0.000000000  0.000000000  0.000000000
     0.250000000  0.250000000  0.250000000

  ion indices of the primitive-cell ions
   primitive index   ion index
                 1           1
                 2           2

 KPOINTS: KPOINTS created by Atomic Simulation Env

Automatic generation of k-mesh.
 Grid dimensions read from file:
 generate k-points for:    9    9    9

 Generating k-lattice:

  Cartesian coordinates                     Fractional coordinates (reciprocal lattice)
    -0.020410945  0.020410945  0.020410945     0.111111111  0.000000000 -0.000000000
     0.020410945 -0.020410945  0.020410945     0.000000000  0.111111111  0.000000000
     0.020410945  0.020410945 -0.020410945    -0.000000000 -0.000000000  0.111111111

  Length of vectors
     0.035352794  0.035352794  0.035352794

  Shift w.r.t. Gamma in fractional coordinates (k-lattice)
     0.000000000  0.000000000  0.000000000

 Subroutine IBZKPT returns following result:

 Found     35 irreducible k-points:

 Following reciprocal coordinates:
            Coordinates               Weight
  0.000000  0.000000  0.000000      1.000000
  0.111111  0.000000  0.000000      8.000000
  0.222222  0.000000  0.000000      8.000000
  0.333333  0.000000  0.000000      8.000000
  0.444444  0.000000  0.000000      8.000000
  0.111111  0.111111  0.000000      6.000000
  0.222222  0.111111  0.000000     24.000000
  0.333333  0.111111  0.000000     24.000000
  0.444444  0.111111  0.000000     24.000000
 -0.444444  0.111111  0.000000     24.000000
 -0.333333  0.111111  0.000000     24.000000
 -0.222222  0.111111  0.000000     24.000000
 -0.111111  0.111111  0.000000     12.000000
  0.222222  0.222222  0.000000      6.000000
  0.333333  0.222222  0.000000     24.000000
  0.444444  0.222222  0.000000     24.000000
 -0.444444  0.222222  0.000000     24.000000
 -0.333333  0.222222  0.000000     24.000000
 -0.222222  0.222222  0.000000     12.000000
  0.333333  0.333333  0.000000      6.000000
  0.444444  0.333333  0.000000     24.000000
 -0.444444  0.333333  0.000000     24.000000
 -0.333333  0.333333  0.000000     12.000000
  0.444444  0.444444  0.000000      6.000000
 -0.444444  0.444444  0.000000     12.000000
  0.333333  0.222222  0.111111     24.000000
  0.444444  0.222222  0.111111     48.000000
 -0.444444  0.222222  0.111111     48.000000
  0.444444  0.333333  0.111111     24.000000
 -0.444444  0.333333  0.111111     48.000000
 -0.333333  0.333333  0.111111     48.000000
 -0.222222  0.333333  0.111111     24.000000
 -0.444444  0.444444  0.111111     24.000000
 -0.333333  0.444444  0.111111     24.000000
 -0.333333  0.444444  0.222222     24.000000

 Following cartesian coordinates:
            Coordinates               Weight
  0.000000  0.000000  0.000000      1.000000
 -0.020411  0.020411  0.020411      8.000000
 -0.040822  0.040822  0.040822      8.000000
 -0.061233  0.061233  0.061233      8.000000
 -0.081644  0.081644  0.081644      8.000000
  0.000000  0.000000  0.040822      6.000000
 -0.020411  0.020411  0.061233     24.000000
 -0.040822  0.040822  0.081644     24.000000
 -0.061233  0.061233  0.102055     24.000000
  0.102055 -0.102055 -0.061233     24.000000
  0.081644 -0.081644 -0.040822     24.000000
  0.061233 -0.061233 -0.020411     24.000000
  0.040822 -0.040822  0.000000     12.000000
  0.000000  0.000000  0.081644      6.000000
 -0.020411  0.020411  0.102055     24.000000
 -0.040822  0.040822  0.122466     24.000000
  0.122466 -0.122466 -0.040822     24.000000
  0.102055 -0.102055 -0.020411     24.000000
  0.081644 -0.081644  0.000000     12.000000
  0.000000  0.000000  0.122466      6.000000
 -0.020411  0.020411  0.142877     24.000000
  0.142877 -0.142877 -0.020411     24.000000
  0.122466 -0.122466  0.000000     12.000000
  0.000000  0.000000  0.163288      6.000000
  0.163288 -0.163288  0.000000     12.000000
  0.000000  0.040822  0.081644     24.000000
 -0.020411  0.061233  0.102055     48.000000
  0.142877 -0.102055 -0.061233     48.000000
  0.000000  0.040822  0.122466     24.000000
  0.163288 -0.122466 -0.040822     48.000000
  0.142877 -0.102055 -0.020411     48.000000
  0.122466 -0.081644  0.000000     24.000000
  0.183699 -0.142877 -0.020411     24.000000
  0.163288 -0.122466 -0.000000     24.000000
  0.183699 -0.102055 -0.020411     24.000000

 SYSTEM =  unknown system
 POSCAR =  Si

 Startparameter for this run:
   NWRITE =      2    write-flag & timer
   PREC   = accura    normal or accurate (medium, high low for compatibility)
   ISTART =      0    job   : 0-new  1-cont  2-samecut
   ICHARG =      2    charge: 1-file 2-atom 10-const
   ISPIN  =      1    spin polarized calculation?
   LNONCOLLINEAR =      F non collinear calculations
   LSORBIT =      F    spin-orbit coupling
   INIWAV =      1    electr: 0-lowe 1-rand  2-diag
   LASPH  =      F    aspherical Exc in radial PAW
 Electronic Relaxation 1
   ENCUT  =  600.0 eV  44.10 Ry    6.64 a.u.   7.69  7.69  7.69*2*pi/ulx,y,z
   ENINI  =  600.0     initial cutoff
   ENAUG  =  322.1 eV  augmentation charge cutoff
   NELM   =     60;   NELMIN=  2; NELMDL= -5     # of ELM steps
   EDIFF  = 0.1E-04   stopping-criterion for ELM
   LREAL  =      F    real-space projection
   NLSPLINE    = F    spline interpolate recip. space projectors
   LCOMPAT=      F    compatible to vasp.4.4
   GGA_COMPAT  = T    GGA compatible to vasp.4.4-vasp.4.6
   LMAXPAW     = -100 max onsite density
   LMAXMIX     =    2 max onsite mixed and CHGCAR
   VOSKOWN=      0    Vosko Wilk Nusair interpolation
   ROPT   =    0.00000
 Ionic relaxation
   EDIFFG = -.1E-01   stopping-criterion for IOM
   NSW    =    500    number of steps for IOM
   NBLOCK =      1;   KBLOCK =    500    inner block; outer block
   IBRION =      2    ionic relax: 0-MD 1-quasi-New 2-CG
   NFREE  =      1    steps in history (QN), initial steepest desc. (CG)
   ISIF   =      3    stress and relaxation
   IWAVPR =     11    prediction:  0-non 1-charg 2-wave 3-comb
   ISYM   =      2    0-nonsym 1-usesym 2-fastsym
   LCORR  =      T    Harris-Foulkes like correction to forces

   POTIM  = 0.5000    time-step for ionic-motion
   TEIN   =    0.0    initial temperature
   TEBEG  =    0.0;   TEEND  =   0.0 temperature during run
   SMASS  =  -3.00    Nose mass-parameter (am)
   estimated Nose-frequenzy (Omega)   =  0.10E-29 period in steps = 0.13E+47 mass=  -0.339E-27a.u.
   SCALEE = 1.0000    scale energy and forces
   NPACO  =    256;   APACO  = 10.0  distance and # of slots for P.C.
   PSTRESS=    0.0 pullay stress

  Mass of Ions in am
   POMASS =  28.09
  Ionic Valenz
   ZVAL   =   4.00
  Atomic Wigner-Seitz radii
  virtual crystal weights
   VCA    =   1.00
   NELECT =       8.0000    total number of electrons
   NUPDOWN=      -1.0000    fix difference up-down

 DOS related values:
   EMIN   =  10.00;   EMAX   =-10.00  energy-range for DOS
   EFERMI =   0.00;   METHOD = LEGACY
   ISMEAR =     0;   SIGMA  =   0.05  broadening in eV -4-tet -1-fermi 0-gaus

 Electronic relaxation 2 (details)
   IALGO  =     38    algorithm
   LDIAG  =      T    sub-space diagonalisation (order eigenvalues)
   LSUBROT=      F    optimize rotation matrix (better conditioning)
   TURBO    =      0    0=normal 1=particle mesh
   IRESTART =      0    0=no restart 2=restart with 2 vectors
   NREBOOT  =      0    no. of reboots
   NMIN     =      0    reboot dimension
   EREF     =   0.00    reference energy to select bands
   IMIX   =      4    mixing-type and parameters
     AMIX     =   0.40;   BMIX     =  1.00
     AMIX_MAG =   1.60;   BMIX_MAG =  1.00
     AMIN     =   0.10
     WC   =   100.;   INIMIX=   1;  MIXPRE=   1;  MAXMIX= -45

 Intra band minimization:
   WEIMIN = 0.0010     energy-eigenvalue tresh-hold
   EBREAK =  0.21E-06  absolut break condition
   DEPER  =   0.30     relativ break condition

   TIME   =   0.40     timestep for ELM

  volume/ion in A,a.u.               =      20.16       136.08
  Fermi-wavevector in a.u.,A,eV,Ry     =   0.954766  1.804247 12.402783  0.911579
  Thomas-Fermi vector in A             =   2.083543

 Write flags
   LWAVE        =      F    write WAVECAR
   LDOWNSAMPLE  =      F    k-point downsampling of WAVECAR
[...]
   0.18369851 -0.10205473 -0.02041095       0.033

 k-points in reciprocal lattice and weights: KPOINTS created by Atomic Simulation Env
   0.00000000  0.00000000  0.00000000       0.001
   0.11111111  0.00000000  0.00000000       0.011
   0.22222222  0.00000000  0.00000000       0.011
   0.33333333  0.00000000  0.00000000       0.011
   0.44444444  0.00000000  0.00000000       0.011
   0.11111111  0.11111111  0.00000000       0.008
   0.22222222  0.11111111  0.00000000       0.033
   0.33333333  0.11111111  0.00000000       0.033
   0.44444444  0.11111111  0.00000000       0.033
  -0.44444444  0.11111111  0.00000000       0.033
  -0.33333333  0.11111111  0.00000000       0.033
  -0.22222222  0.11111111  0.00000000       0.033
  -0.11111111  0.11111111  0.00000000       0.016
   0.22222222  0.22222222  0.00000000       0.008
   0.33333333  0.22222222  0.00000000       0.033
   0.44444444  0.22222222  0.00000000       0.033
  -0.44444444  0.22222222  0.00000000       0.033
  -0.33333333  0.22222222  0.00000000       0.033
  -0.22222222  0.22222222  0.00000000       0.016
   0.33333333  0.33333333  0.00000000       0.008
   0.44444444  0.33333333  0.00000000       0.033
  -0.44444444  0.33333333  0.00000000       0.033
  -0.33333333  0.33333333  0.00000000       0.016
   0.44444444  0.44444444  0.00000000       0.008
  -0.44444444  0.44444444  0.00000000       0.016
   0.33333333  0.22222222  0.11111111       0.033
   0.44444444  0.22222222  0.11111111       0.066
  -0.44444444  0.22222222  0.11111111       0.066
   0.44444444  0.33333333  0.11111111       0.033
  -0.44444444  0.33333333  0.11111111       0.066
  -0.33333333  0.33333333  0.11111111       0.066
  -0.22222222  0.33333333  0.11111111       0.033
  -0.44444444  0.44444444  0.11111111       0.033
  -0.33333333  0.44444444  0.11111111       0.033
  -0.33333333  0.44444444  0.22222222       0.033

 position of ions in fractional coordinates (direct lattice)
   0.00000000  0.00000000  0.00000000
   0.25000000  0.25000000  0.25000000

 position of ions in cartesian coordinates  (Angst):
   0.00000000  0.00000000  0.00000000
   1.36092559  1.36092559  1.36092559

 k-point     1 :   0.0000 0.0000 0.0000  plane waves:    1363
 k-point     2 :   0.1111 0.0000 0.0000  plane waves:    1351
 k-point     3 :   0.2222 0.0000 0.0000  plane waves:    1339
 k-point     4 :   0.3333 0.0000 0.0000  plane waves:    1356
 k-point     5 :   0.4444 0.0000 0.0000  plane waves:    1344
 k-point     6 :   0.1111 0.1111 0.0000  plane waves:    1347
 k-point     7 :   0.2222 0.1111 0.0000  plane waves:    1346
 k-point     8 :   0.3333 0.1111 0.0000  plane waves:    1346
 k-point     9 :   0.4444 0.1111 0.0000  plane waves:    1352
 k-point    10 :  -0.4444 0.1111 0.0000  plane waves:    1352
 k-point    11 :  -0.3333 0.1111 0.0000  plane waves:    1345
 k-point    12 :  -0.2222 0.1111 0.0000  plane waves:    1352
 k-point    13 :  -0.1111 0.1111 0.0000  plane waves:    1361
 k-point    14 :   0.2222 0.2222 0.0000  plane waves:    1343
 k-point    15 :   0.3333 0.2222 0.0000  plane waves:    1336
 k-point    16 :   0.4444 0.2222 0.0000  plane waves:    1347
 k-point    17 :  -0.4444 0.2222 0.0000  plane waves:    1352
 k-point    18 :  -0.3333 0.2222 0.0000  plane waves:    1348
 k-point    19 :  -0.2222 0.2222 0.0000  plane waves:    1344
 k-point    20 :   0.3333 0.3333 0.0000  plane waves:    1347
 k-point    21 :   0.4444 0.3333 0.0000  plane waves:    1343
 k-point    22 :  -0.4444 0.3333 0.0000  plane waves:    1338
 k-point    23 :  -0.3333 0.3333 0.0000  plane waves:    1316
 k-point    24 :   0.4444 0.4444 0.0000  plane waves:    1338
 k-point    25 :  -0.4444 0.4444 0.0000  plane waves:    1332
 k-point    26 :   0.3333 0.2222 0.1111  plane waves:    1351
 k-point    27 :   0.4444 0.2222 0.1111  plane waves:    1349
 k-point    28 :  -0.4444 0.2222 0.1111  plane waves:    1349
 k-point    29 :   0.4444 0.3333 0.1111  plane waves:    1348
 k-point    30 :  -0.4444 0.3333 0.1111  plane waves:    1347
 k-point    31 :  -0.3333 0.3333 0.1111  plane waves:    1337
 k-point    32 :  -0.2222 0.3333 0.1111  plane waves:    1346
 k-point    33 :  -0.4444 0.4444 0.1111  plane waves:    1343
 k-point    34 :  -0.3333 0.4444 0.1111  plane waves:    1340
 k-point    35 :  -0.3333 0.4444 0.2222  plane waves:    1349

 maximum and minimum number of plane-waves per node :        74       60

 maximum number of plane-waves:      1363
 maximum index in each direction:
   IXMAX=    8   IYMAX=    7   IZMAX=    7
   IXMIN=   -8   IYMIN=   -8   IZMIN=   -7

 parallel 3D FFT for wavefunctions:
    minimum data exchange during FFTs selected (reduces bandwidth)
 parallel 3D FFT for charge:
    minimum data exchange during FFTs selected (reduces bandwidth)

 Broyden mixing: mesh for mixing (old mesh)
   NGX = 15   NGY = 15   NGZ = 15
  (NGX  = 64   NGY  = 64   NGZ  = 64)
  gives a total of   3375 points

 initial charge density was supplied:
 charge density of overlapping atoms calculated
 number of electron       8.0000000 magnetization
 keeping initial charge density in first step

 Maximum index for augmentation-charges          967 (set IRDMAX)

 First call to EWALD:  gamma=   0.517
 Maximum number of real-space cells 3x 3x 3
 Maximum number of reciprocal cells 3x 3x 3

--------------------------------------- Ionic step        1  -------------------------------------------

--------------------------------------- Iteration      1(   1)  ---------------------------------------

 eigenvalue-minimisations  :   840
 total energy-change (2. order) : 0.2913909E+01  (-0.3755356E+03)
 number of electron       8.0000000 magnetization
 augmentation part        8.0000000 magnetization

 Free energy of the ion-electron system (eV)
  alpha Z        PSCENC =         3.33880742
  Ewald energy   TEWEN  =      -227.98820656
  -Hartree energ DENC   =       -11.11484529
  -exchange      EXHF   =         0.00000000
  -V(xc)+E(xc)   XCENC  =       -18.63153720
  PAW double counting   =       176.24759923     -141.06103558
  entropy T*S    EENTRO =        -0.00120085
  eigenvalues    EBANDS =        15.99120888
  atomic energy  EATOM  =       206.13311910
  Solvation  Ediel_sol  =         0.00000000
  free energy    TOTEN  =         2.91390916 eV

  energy without entropy =        2.91511000  energy(sigma->0) =        2.91450958

[...]

 eigenvalue-minimisations  :  1188
 total energy-change (2. order) :-0.1379575E+02  (-0.1335969E+02)
 number of electron       8.0000000 magnetization
 augmentation part        8.0000000 magnetization

[...]

 Broyden mixing:
  rms(total) = 0.48341E+00    rms(broyden)= 0.48341E+00
  rms(prec ) = 0.94621E+00
  weight for this iteration     100.00

[...]

 eigenvalues of (default mixing * dielectric matrix)
  average eigenvalue GAMMA=   2.5438
  2.5438

[...]

 average (electrostatic) potential at core
  the test charge radii are     0.9892
  (the norm of the test charge is              1.0000)
       1 -83.3301       2 -83.3301

 E-fermi :   5.9774     XC(G=0):  -9.3809     alpha+bet :-11.8943

 val. band max:        5.7538363024   @ k =   0.0000   0.0000   0.0000
 cond. band min:       6.3516017423   @ k =   0.4444   0.4444   0.0000
 fundamental gap:      0.5977654399
 Fermi energy:         5.9774256727

 k-point     1 :       0.0000    0.0000    0.0000
  band No.  band energies     occupation
      1      -6.1543      2.00000
      2       5.7538      2.00000
      3       5.7538      2.00000
      4       5.7538      2.00000
      5       8.3166      0.00000
      6       8.3166      0.00000
      7       8.3166      0.00000
      8       9.0450      0.00000
      9      13.4702      0.00000
     10      13.4702      0.00000
     11      13.6850      0.00000
     12      16.9824      0.00000

[...]

 soft charge-density along one line, spin component           1
         0         1         2         3         4         5         6         7         8         9
 total charge-density along one line

------------------------ aborting loop because EDIFF is reached ----------------------------------------

  FORCE on cell =-STRESS in cart. coord.  units (eV):
  Direction    XX          YY          ZZ          XY          YZ          ZX
  Alpha Z     3.33881     3.33881     3.33881
  Ewald     -75.99610   -75.99610   -75.99610    -0.00000    -0.00000     0.00000
  Hartree     5.00433     5.00433     5.00433     0.00000     0.00000     0.00000
  E(xc)     -25.32610   -25.32610   -25.32610     0.00000     0.00000     0.00000
  Local     -29.31359   -29.31359   -29.31359     0.00000     0.00000     0.00000
  n-local    78.76551    80.01502    74.29485     2.21933    -1.25574     0.58119
  augment   -11.64959   -11.64959   -11.64959    -0.00000    -0.00000    -0.00000
  Kinetic    58.66573    56.11938    54.92351     3.55242    -0.69160     1.01326
  Fock        0.00000     0.00000     0.00000     0.00000     0.00000     0.00000
  Total       0.31909     0.31909     0.31909     0.00000     0.00000    -0.00000
  in kB      12.67664    12.67664    12.67664     0.00000     0.00000    -0.00000

 VOLUME and BASIS-vectors are now :
  energy-cutoff  :      600.00
  volume of cell :       40.33
      direct lattice vectors                 reciprocal lattice vectors
     0.000000000  2.721851185  2.721851185    -0.183698507  0.183698507  0.183698507
     2.721851185  0.000000000  2.721851185     0.183698507 -0.183698507  0.183698507
     2.721851185  2.721851185  0.000000000     0.183698507  0.183698507 -0.183698507

[...]

 FORCES acting on ions
    electron-ion (+dipol)            ewald-force                    non-local-force                 convergence-correction
   -.363E-08 -.363E-08 -.532E-08   0.805E-14 -.960E-14 0.126E-13   -.763E-17 0.548E-16 0.504E-16   -.958E-09 -.958E-09 -.958E-09
   0.363E-08 0.363E-08 0.532E-08   -.796E-14 0.964E-14 -.127E-13   -.505E-17 -.536E-16 -.463E-16   0.958E-09 0.958E-09 0.958E-09
   -.505E-13 0.821E-14 0.342E-13   0.978E-16 0.408E-16 -.148E-15   -.127E-16 0.119E-17 0.411E-17   0.800E-15 0.776E-15 0.678E-15

 POSITION                                       TOTAL-FORCE (eV/Angst)
      0.00000      0.00000      0.00000         0.000000      0.000000      0.000000
      1.36093      1.36093      1.36093        -0.000000     -0.000000     -0.000000
    total drift:                               -0.000000      0.000000      0.000000

  FREE ENERGIE OF THE ION-ELECTRON SYSTEM (eV)
  free  energy   TOTEN  =       -10.84622621 eV

  energy  without entropy=      -10.84622621  energy(sigma->0) =      -10.84622621

[...]

 d Force = 0.0000000E+00[ 0.000E+00, 0.000E+00]  d Energy = 0.1198771E-02-0.120E-02
 d Force = 0.0000000E+00[ 0.000E+00, 0.000E+00]  d Ewald  =-0.1741408E+01 0.174E+01

 Steepest descent step on ions:
 trial-energy change:   -0.001199  1 .order   -0.001310   -0.007368    0.004749
  (g-gl).g = 0.737E-02      g.g   = 0.737E-02  gl.gl    = 0.000E+00
 g(Force)  = 0.308E-50   g(Stress)= 0.737E-02 ortho     = 0.000E+00
 gamma     =   0.00000
 trial     =   1.00000
 opt step  =   0.59485  (harmonic =   0.60808) maximal distance =0.00000000
 next E    =   -10.848394   (d E  =  -0.00217)

--------------------------------------- Ionic step        3  -------------------------------------------

[...]

 eigenvalue-minimisations  :   948
 total energy-change (2. order) : 0.1558763E-03  (-0.3413396E-04)
 number of electron       8.0000000 magnetization
 augmentation part       -0.4582023 magnetization

 Broyden mixing:
  rms(total) = 0.27342E-02    rms(broyden)= 0.27342E-02
  rms(prec ) = 0.30138E-02
  weight for this iteration     100.00

 eigenvalues of (default mixing * dielectric matrix)
  average eigenvalue GAMMA=   1.2620
  2.2264  0.2976

[...]

--------------------------------------- Iteration      3(   4)  ---------------------------------------

 eigenvalue-minimisations  :   648
 total energy-change (2. order) :-0.4696894E-06  (-0.2694296E-06)
 number of electron       8.0000000 magnetization
 augmentation part       -0.4582023 magnetization

 Free energy of the ion-electron system (eV)
  alpha Z        PSCENC =         3.29336351
  Ewald energy   TEWEN  =      -226.94910907
  -Hartree energ DENC   =       -15.17665623
  -exchange      EXHF   =         0.00000000
  -V(xc)+E(xc)   XCENC  =       -18.06117637
  PAW double counting   =       833.73673394     -798.75388069
  entropy T*S    EENTRO =        -0.00000000
  eigenvalues    EBANDS =         4.92921935
  atomic energy  EATOM  =       206.13311910
  Solvation  Ediel_sol  =         0.00000000
  free energy    TOTEN  =       -10.84838645 eV

  energy without entropy =      -10.84838645  energy(sigma->0) =      -10.84838645

 average (electrostatic) potential at core
  the test charge radii are     0.9892
  (the norm of the test charge is              1.0000)
       1 -83.4814       2 -83.4814

 E-fermi :   5.8511     XC(G=0):  -9.3266     alpha+bet :-11.7324

 val. band max:        5.6170413526   @ k =   0.0000   0.0000   0.0000
 cond. band min:       6.2405790704   @ k =   0.4444   0.4444   0.0000
 fundamental gap:      0.6235377177
 Fermi energy:         5.8511399603

[...]

 k-point    35 :      -0.3333    0.4444    0.2222
  band No.  band energies     occupation
      1      -2.5598      2.00000
      2      -1.4183      2.00000
      3       1.6562      2.00000
      4       2.2855      2.00000
      5       9.4542      0.00000
      6       9.5655      0.00000
      7      10.1895      0.00000
      8      11.9285      0.00000
      9      14.9368      0.00000
     10      16.3621      0.00000
     11      18.1465      0.00000
     12      19.5079      0.00000

 soft charge-density along one line, spin component           1
         0         1         2         3         4         5         6         7         8         9
 total charge-density along one line

------------------------ aborting loop because EDIFF is reached ----------------------------------------

  FORCE on cell =-STRESS in cart. coord.  units (eV):
  Direction    XX          YY          ZZ          XY          YZ          ZX
  Alpha Z     3.29336     3.29336     3.29336
  Ewald     -75.64974   -75.64974   -75.64974     0.00000     0.00000    -0.00000
  Hartree     5.05901     5.05901     5.05901     0.00000     0.00000     0.00000
  E(xc)     -25.24790   -25.24790   -25.24790     0.00000     0.00000     0.00000
  Local     -29.50504   -29.50504   -29.50504     0.00000     0.00000     0.00000
  n-local    78.51058    79.75701    74.05283     2.19058    -1.23537     0.56922
  augment   -11.64550   -11.64550   -11.64550    -0.00000    -0.00000    -0.00000
  Kinetic    58.35221    55.91002    54.50769     3.55164    -0.71397     1.01289
  Fock        0.00000     0.00000     0.00000     0.00000     0.00000     0.00000
  Total       0.00098     0.00098     0.00098     0.00000     0.00000     0.00000
  in kB       0.03847     0.03847     0.03847     0.00000     0.00000     0.00000

 VOLUME and BASIS-vectors are now :
  energy-cutoff  :      600.00
  volume of cell :       40.89
      direct lattice vectors                 reciprocal lattice vectors
     0.000000000  2.734313312  2.734313312    -0.182861268  0.182861268  0.182861268
     2.734313312  0.000000000  2.734313312     0.182861268 -0.182861268  0.182861268
     2.734313312  2.734313312 -0.000000000     0.182861268  0.182861268 -0.182861268

  length of vectors
     3.866902970  3.866902970  3.866902970     0.316725007  0.316725007  0.316725007

 FORCES acting on ions
    electron-ion (+dipol)            ewald-force                    non-local-force                 convergence-correction
   -.198E-08 -.198E-08 -.453E-08   -.959E-14 0.842E-14 -.804E-14   0.885E-17 -.189E-16 -.335E-16   0.410E-10 0.410E-10 0.410E-10
   0.198E-08 0.198E-08 0.453E-08   0.965E-14 -.882E-14 0.729E-14   -.980E-17 0.180E-16 0.207E-16   -.410E-10 -.410E-10 -.410E-10
   -.636E-13 -.200E-13 0.389E-13   0.651E-16 -.396E-15 -.748E-15   -.944E-18 -.944E-18 -.128E-16   0.186E-14 0.410E-14 -.322E-15

 POSITION                                       TOTAL-FORCE (eV/Angst)
      0.00000      0.00000      0.00000         0.000000      0.000000      0.000000
      1.36716      1.36716      1.36716        -0.000000     -0.000000     -0.000000
    total drift:                               -0.000000     -0.000000      0.000000

  FREE ENERGIE OF THE ION-ELECTRON SYSTEM (eV)
  free  energy   TOTEN  =       -10.84838645 eV

  energy  without entropy=      -10.84838645  energy(sigma->0) =      -10.84838645

 d Force = 0.0000000E+00[ 0.000E+00, 0.000E+00]  d Energy = 0.9614683E-03-0.961E-03
 d Force = 0.0000000E+00[ 0.000E+00, 0.000E+00]  d Ewald  = 0.7023100E+00-0.702E+00

 reached required accuracy - stopping structural energy minimisation