 vasp.6.4.3 19Mar24 (build Jul  4 2024 16:21:58) complex
 executed on             LinuxGNU date 2024.10.04  20:10:10

 INCAR:
   ENCUT = 600.000000
   SIGMA = 0.050000
   GGA = PE
   PREC = Accurate
   IBRION = -1
   ISIF = 2
   ISMEAR = 0
   ISYM = 2
   NSW = 0
   NCORE = 20
   LCHARG = .FALSE.
   LWAVE = .FALSE.
   LREAL = .FALSE.

 POTCAR:    PAW_PBE Si 05Jan2001
 POTCAR:    PAW_PBE Si 05Jan2001
   VRHFIN =Si: s2p2

   TITEL  = PAW_PBE Si 05Jan2001
   POMASS =   28.085; ZVAL   =    4.000    mass and valenz
   ENMAX  =  245.345; ENMIN  =  184.009 eV

  PAW_PBE Si 05Jan2001                  :

 POSCAR: Si
  positions in cartesian coordinates

 exchange-correlation table for PE
   RHO(1)=    0.500       N(1)  =     2000
   RHO(2)=  100.500       N(2)  =     4000

 ion  position               nearest neighbor table
   1  0.004  0.000  0.000-   9 2.34  13 2.37  11 2.37  10 2.39
   2  0.500  0.000  0.000-   9 2.37  10 2.37  14 2.37  12 2.37
   3  0.000  0.500  0.000-  11 2.37  12 2.37  15 2.37   9 2.37
   4  0.500  0.500  0.000-  11 2.37  12 2.37  10 2.37  16 2.37
   5  0.000  0.000  0.500-   9 2.37  13 2.37  14 2.37  15 2.37
   6  0.500  0.000  0.500-  10 2.37  13 2.37  14 2.37  16 2.37
   7  0.000  0.500  0.500-  11 2.37  15 2.37  13 2.37  16 2.39
   8  0.500  0.500  0.500-  16 2.34  15 2.37  12 2.37  14 2.37
   9  0.125  0.125  0.125-   1 2.34   2 2.37   5 2.37   3 2.37
  10  0.625  0.125  0.125-   2 2.37   6 2.37   4 2.37   1 2.39
  11  0.125  0.625  0.125-   3 2.37   4 2.37   7 2.37   1 2.37
  12  0.625  0.625  0.125-   3 2.37   4 2.37   8 2.37   2 2.37
  13  0.125  0.125  0.625-   5 2.37   6 2.37   7 2.37   1 2.37
  14  0.625  0.125  0.625-   2 2.37   5 2.37   6 2.37   8 2.37
  15  0.125  0.625  0.625-   3 2.37   7 2.37   8 2.37   5 2.37
  16  0.621  0.625  0.625-   8 2.34   4 2.37   6 2.37   7 2.39

  LATTYP: Found a face centered cubic cell.
 ALAT       =    10.9372532499

  Lattice vectors:

 A1 = (   0.0000000000,   5.4686266249,   5.4686266249)
 A2 = (   5.4686266249,   0.0000000000,   5.4686266249)
 A3 = (   5.4686266249,   5.4686266249,   0.0000000000)

Analysis of symmetry for initial positions (statically):
 Subroutine PRICEL returns:
 Original cell was already a primitive cell.

 Routine SETGRP: Setting up the symmetry group for a
 face centered cubic supercell.

 Subroutine GETGRP returns: Found  4 space group operations
 (whereof  2 operations were pure point group operations)
 out of a pool of 48 trial point group operations.

The static configuration has the point symmetry C_1h.
 The point group associated with its full space group is C_2h.

Analysis of symmetry for dynamics (positions and initial velocities):
 Subroutine PRICEL returns:
 Original cell was already a primitive cell.

 Routine SETGRP: Setting up the symmetry group for a
 face centered cubic supercell.

 Subroutine GETGRP returns: Found  4 space group operations
 (whereof  2 operations were pure point group operations)
 out of a pool of 48 trial point group operations.

The dynamic configuration has the point symmetry C_1h.
 The point group associated with its full space group is C_2h.

 Subroutine INISYM returns: Found  4 space group operations
 (whereof  2 operations are pure point group operations),
 and found     1 'primitive' translations

                                     Primitive cell

  volume of cell :     327.0882

  direct lattice vectors                    reciprocal lattice vectors
     0.000000000  5.468626625  5.468626625    -0.091430634  0.091430634  0.091430634
     5.468626625  0.000000000  5.468626625     0.091430634 -0.091430634  0.091430634
     5.468626625  5.468626625  0.000000000     0.091430634  0.091430634 -0.091430634

  length of vectors
     7.733805941  7.733805941  7.733805941     0.158362504  0.158362504  0.158362504

  position of ions in fractional coordinates (direct lattice)
     0.003879073  0.000000000  1.000000000
     0.500000000  0.000000000  1.000000000
     0.000000000  0.500000000  1.000000000
     0.500000000  0.500000000  1.000000000
     0.000000000  1.000000000  0.500000000
     0.500000000  0.000000000  0.500000000
     0.000000000  0.500000000  0.500000000
     0.500000000  0.500000000  0.500000000
     0.125000000  0.125000000  0.125000000
     0.625000000  0.125000000  0.125000000
     0.125000000  0.625000000  0.125000000
     0.625000000  0.625000000  0.125000000
     0.125000000  0.125000000  0.625000000
     0.625000000  0.125000000  0.625000000
     0.125000000  0.625000000  0.625000000
     0.621120927  0.625000000  0.625000000

  ion indices of the primitive-cell ions
   primitive index   ion index
                 1           1
                 2           2
                 3           3
                 4           4
                 5           5
                 6           6
                 7           7
                 8           8
                 9           9
                10          10
                11          11
                12          12
                13          13
                14          14
                15          15
                16          16

 KPOINTS: KPOINTS created by Atomic Simulation Env

Automatic generation of k-mesh.
 Grid dimensions read from file:
 generate k-points for:    1    1    1

 Generating k-lattice:

  Cartesian coordinates                     Fractional coordinates (reciprocal lattice)
    -0.091430634  0.091430634  0.091430634     1.000000000  0.000000000 -0.000000000
     0.091430634 -0.091430634  0.091430634     0.000000000  1.000000000  0.000000000
     0.091430634  0.091430634 -0.091430634    -0.000000000 -0.000000000  1.000000000

  Length of vectors
     0.158362504  0.158362504  0.158362504

  Shift w.r.t. Gamma in fractional coordinates (k-lattice)
     0.000000000  0.000000000  0.000000000

 Subroutine IBZKPT returns following result:

 Found      1 irreducible k-points:

 Following reciprocal coordinates:
            Coordinates               Weight
  0.000000  0.000000  0.000000      1.000000

 Following cartesian coordinates:
            Coordinates               Weight
  0.000000  0.000000  0.000000      1.000000

 SYSTEM =  unknown system
 POSCAR =  Si

 Startparameter for this run:
   NWRITE =      2    write-flag & timer
   PREC   = accura    normal or accurate (medium, high low for compatibility)
   ISTART =      0    job   : 0-new  1-cont  2-samecut
   ICHARG =      2    charge: 1-file 2-atom 10-const
   ISPIN  =      1    spin polarized calculation?
   LNONCOLLINEAR =      F non collinear calculations
   LSORBIT =      F    spin-orbit coupling
   INIWAV =      1    electr: 0-lowe 1-rand  2-diag
   LASPH  =      F    aspherical Exc in radial PAW
 Electronic Relaxation 1
   ENCUT  =  600.0 eV  44.10 Ry    6.64 a.u.  15.45 15.45 15.45*2*pi/ulx,y,z
   ENINI  =  600.0     initial cutoff
   ENAUG  =  322.1 eV  augmentation charge cutoff
   NELM   =     60;   NELMIN=  2; NELMDL=  0     # of ELM steps
   EDIFF  = 0.1E-03   stopping-criterion for ELM
   LREAL  =      F    real-space projection
   NLSPLINE    = F    spline interpolate recip. space projectors
   LCOMPAT=      F    compatible to vasp.4.4
   GGA_COMPAT  = T    GGA compatible to vasp.4.4-vasp.4.6
   LMAXPAW     = -100 max onsite density
   LMAXMIX     =    2 max onsite mixed and CHGCAR
   VOSKOWN=      0    Vosko Wilk Nusair interpolation
   ROPT   =    0.00000
 Ionic relaxation
   EDIFFG = 0.1E-02   stopping-criterion for IOM
   NSW    =      0    number of steps for IOM
   NBLOCK =      1;   KBLOCK =      1    inner block; outer block
   IBRION =     -1    ionic relax: 0-MD 1-quasi-New 2-CG
   NFREE  =      0    steps in history (QN), initial steepest desc. (CG)
   ISIF   =      2    stress and relaxation
   IWAVPR =     10    prediction:  0-non 1-charg 2-wave 3-comb
   ISYM   =      2    0-nonsym 1-usesym 2-fastsym
   LCORR  =      T    Harris-Foulkes like correction to forces

   POTIM  = 0.5000    time-step for ionic-motion
   TEIN   =    0.0    initial temperature
   TEBEG  =    0.0;   TEEND  =   0.0 temperature during run
   SMASS  =  -3.00    Nose mass-parameter (am)
   estimated Nose-frequenzy (Omega)   =  0.10E-29 period in steps = 0.13E+47 mass=  -0.137E-26a.u.
   SCALEE = 1.0000    scale energy and forces
   NPACO  =    256;   APACO  = 10.0  distance and # of slots for P.C.
   PSTRESS=    0.0 pullay stress

  Mass of Ions in am
   POMASS =  28.09
  Ionic Valenz
   ZVAL   =   4.00
  Atomic Wigner-Seitz radii
  virtual crystal weights
   VCA    =   1.00
   NELECT =      64.0000    total number of electrons
   NUPDOWN=      -1.0000    fix difference up-down

 DOS related values:
   EMIN   =  10.00;   EMAX   =-10.00  energy-range for DOS
   EFERMI =   0.00;   METHOD = LEGACY
   ISMEAR =     0;   SIGMA  =   0.05  broadening in eV -4-tet -1-fermi 0-gaus

 Electronic relaxation 2 (details)
   IALGO  =     38    algorithm
   LDIAG  =      T    sub-space diagonalisation (order eigenvalues)
   LSUBROT=      F    optimize rotation matrix (better conditioning)
   TURBO    =      0    0=normal 1=particle mesh
   IRESTART =      0    0=no restart 2=restart with 2 vectors
   NREBOOT  =      0    no. of reboots
   NMIN     =      0    reboot dimension
   EREF     =   0.00    reference energy to select bands
   IMIX   =      4    mixing-type and parameters
     AMIX     =   0.40;   BMIX     =  1.00
     AMIX_MAG =   1.60;   BMIX_MAG =  1.00
     AMIN     =   0.10
     WC   =   100.;   INIMIX=   1;  MIXPRE=   1;  MAXMIX= -45

 Intra band minimization:
   WEIMIN = 0.0000     energy-eigenvalue tresh-hold
   EBREAK =  0.60E-06  absolut break condition
   DEPER  =   0.30     relativ break condition

   TIME   =   0.40     timestep for ELM

  volume/ion in A,a.u.               =      20.44       137.96
  Fermi-wavevector in a.u.,A,eV,Ry     =   0.950415  1.796024 12.289985  0.903288
  Thomas-Fermi vector in A             =   2.078789

 Write flags
   LWAVE        =      F    write WAVECAR
   LDOWNSAMPLE  =      F    k-point downsampling of WAVECAR
   LCHARG       =      F    write CHGCAR
   LVTOT        =      F    write LOCPOT, total local potential
   LVHAR        =      F    write LOCPOT, Hartree potential only
   WRT_POTENTIAL= false  ! write potential to hdf5 file
   LELF         =      F    write electronic localiz. function (ELF)
   LORBIT       =      0    0 simple, 1 ext, 2 COOP (PROOUT), +10 PAW based schemes

 Dipole corrections
   LMONO      =      F    monopole corrections only (constant potential shift)
   LDIPOL     =      F    correct potential (dipole corrections)
   IDIPOL     =      0    1-x, 2-y, 3-z, 4-all directions
   EPSILON    =  1.0000000 bulk dielectric constant
   LVACPOTAV  =      F  vacuum potentials using an averaging scheme for the charge density
   VACPOTFLAT =  0.1000000 required flatness to determine vacuum potential
 Exchange correlation treatment:
   GGA     = PE    functional components
   XC_C    = 1    coefficients multiplying the functional components
   VOSKOWN =     0    Vosko Wilk Nusair interpolation
   LHFCALC =     F    Hartree Fock is set to
   LHFONE  =     F    Hartree Fock one center treatment
   AEXX    =    0.0000 exact exchange contribution

 Parameters of functionals:
   PE:
     No parameter

 Van der Waals corrections
   IVDW    =     0    specifies the selected vdW correction

 Linear response parameters
   LEPSILON=     F    determine dielectric tensor
   LRPA    =     F    only Hartree local field effects (RPA)
   LNABLA  =     F    use nabla operator in PAW spheres
   LVEL    =     F    velocity operator in full k-point grid
   CSHIFT  =0.1000    complex shift for real part using Kramers Kronig
   OMEGAMAX=  -1.0    maximum frequency
   DEG_THRESHOLD= 0.2000000E-02 threshold for treating states as degnerate
   RTIME   =   -0.100 relaxation time in fs
  (WPLASMAI=    0.000 imaginary part of plasma frequency in eV, 0.658/RTIME)
   DFIELD  = 0.0000000 0.0000000 0.0000000 field for delta impulse in time

  Optional k-point grid parameters
   LKPOINTS_OPT  =     F    use optional k-point grid
   KPOINTS_OPT_MODE=     1    mode for optional k-point grid

 Orbital magnetization related:
   ORBITALMAG=     F  switch on orbital magnetization
   LCHIMAG   =     F  perturbation theory with respect to B field
   DQ        =  0.001000  dq finite difference perturbation B field
   LLRAUG    =     F  two centre corrections for induced B field
   LBONE     =     F  B-component reconstruction in AE one-centre
   LVGVCALC  =     T  calculate vGv susceptibility
   LVGVAPPL  =     F  apply vGv susceptibility instead of pGv for G=0

 Random number generation:
   RANDOM_GENERATOR = DEFAULT
   PCG_SEED         = not used

 Static calculation
 charge density and potential will be updated during run
 non-spin polarized calculation
 Variant of blocked Davidson
 Davidson routine will perform the subspace rotation
 perform sub-space diagonalisation
    after iterative eigenvector-optimisation
 modified Broyden-mixing scheme, WC =      100.0
 initial mixing is a Kerker type mixing with AMIX =  0.4000 and BMIX =      1.0000
 Hartree-type preconditioning will be used
 using additional bands           10
 reciprocal scheme for non local part
 use partial core corrections
 calculate Harris-corrections to forces   (improved forces if not selfconsistent)
 use gradient corrections
 use of overlap-Matrix (Vanderbilt PP)
 Gauss-broadening in eV      SIGMA  =   0.05

  energy-cutoff  :      600.00
  volume of cell :      327.09
      direct lattice vectors                 reciprocal lattice vectors
     0.000000000  5.468626625  5.468626625    -0.091430634  0.091430634  0.091430634
     5.468626625  0.000000000  5.468626625     0.091430634 -0.091430634  0.091430634
     5.468626625  5.468626625  0.000000000     0.091430634  0.091430634 -0.091430634

[...]

 k-points in units of 2pi/SCALE and weight: KPOINTS created by Atomic Simulation Env
   0.00000000  0.00000000  0.00000000       1.000

 k-points in reciprocal lattice and weights: KPOINTS created by Atomic Simulation Env
   0.00000000  0.00000000  0.00000000       1.000

 position of ions in fractional coordinates (direct lattice)
   0.00387907  0.00000000  0.00000000
   0.50000000  0.00000000  0.00000000
   0.00000000  0.50000000  0.00000000
   0.50000000  0.50000000  0.00000000
   0.00000000  0.00000000  0.50000000
   0.50000000  0.00000000  0.50000000
   0.00000000  0.50000000  0.50000000
   0.50000000  0.50000000  0.50000000
   0.12500000  0.12500000  0.12500000
   0.62500000  0.12500000  0.12500000
   0.12500000  0.62500000  0.12500000
   0.62500000  0.62500000  0.12500000
   0.12500000  0.12500000  0.62500000
   0.62500000  0.12500000  0.62500000
   0.12500000  0.62500000  0.62500000
   0.62112093  0.62500000  0.62500000

 position of ions in cartesian coordinates  (Angst):
   0.00000000  0.02121320  0.02121320
   0.00000000  2.73431331  2.73431331
   2.73431331  0.00000000  2.73431331
   2.73431331  2.73431331  5.46862662
   2.73431331  2.73431331  0.00000000
   2.73431331  5.46862662  2.73431331
   5.46862662  2.73431331  2.73431331
   5.46862662  5.46862662  5.46862662
   1.36715666  1.36715666  1.36715666
   1.36715666  4.10146997  4.10146997
   4.10146997  1.36715666  4.10146997
   4.10146997  4.10146997  6.83578328
   4.10146997  4.10146997  1.36715666
   4.10146997  6.83578328  4.10146997
   6.83578328  4.10146997  4.10146997
   6.83578328  6.81457008  6.81457008

 k-point     1 :   0.0000 0.0000 0.0000  plane waves:   10969

 maximum and minimum number of plane-waves per node :       551      547

 maximum number of plane-waves:     10969
 maximum index in each direction:
   IXMAX=   15   IYMAX=   15   IZMAX=   15
   IXMIN=  -15   IYMIN=  -15   IZMIN=  -15

 parallel 3D FFT for wavefunctions:
    minimum data exchange during FFTs selected (reduces bandwidth)
 parallel 3D FFT for charge:
    minimum data exchange during FFTs selected (reduces bandwidth)

 Broyden mixing: mesh for mixing (old mesh)
   NGX = 31   NGY = 31   NGZ = 31
  (NGX  =128   NGY  =128   NGZ  =128)
  gives a total of  29791 points

 initial charge density was supplied:
 charge density of overlapping atoms calculated
 number of electron      64.0000000 magnetization
 keeping initial charge density in first step

 Maximum index for augmentation-charges         1783 (set IRDMAX)

 First call to EWALD:  gamma=   0.257
 Maximum number of real-space cells 3x 3x 3
 Maximum number of reciprocal cells 3x 3x 3

--------------------------------------- Ionic step        1  -------------------------------------------

--------------------------------------- Iteration      1(   1)  ---------------------------------------

 eigenvalue-minimisations  :    84
 total energy-change (2. order) : 0.1822219E+03  (-0.2662318E+04)
 number of electron      64.0000000 magnetization
 augmentation part       64.0000000 magnetization

 Free energy of the ion-electron system (eV)
  alpha Z        PSCENC =        26.34690810
  Ewald energy   TEWEN  =     -1815.55263189
  -Hartree energ DENC   =       -90.60154747
  -exchange      EXHF   =         0.00000000
  -V(xc)+E(xc)   XCENC  =      -149.47923156
  PAW double counting   =      1409.98079384    -1128.48828464
  entropy T*S    EENTRO =        -0.00000000
  eigenvalues    EBANDS =       280.95094895
  atomic energy  EATOM  =      1649.06495283
  Solvation  Ediel_sol  =         0.00000000
  free energy    TOTEN  =       182.22190816 eV

  energy without entropy =      182.22190816  energy(sigma->0) =      182.22190816

[...]

 eigenvalue-minimisations  :   108
 total energy-change (2. order) :-0.2321775E+03  (-0.2217091E+03)
 number of electron      64.0000000 magnetization
 augmentation part       64.0000000 magnetization

[...]

 Broyden mixing:
  rms(total) = 0.15476E+01    rms(broyden)= 0.15476E+01
  rms(prec ) = 0.22072E+01
  weight for this iteration     100.00

[...]

 eigenvalues of (default mixing * dielectric matrix)
  average eigenvalue GAMMA=   2.6266
  2.6266

[...]

 eigenvalue-minimisations  :    84
 total energy-change (2. order) : 0.8533997E+00  (-0.2173534E+00)
 number of electron      63.9999998 magnetization
 augmentation part       -3.3608850 magnetization

[...]

 Broyden mixing:
  rms(total) = 0.20098E-02    rms(broyden)= 0.20098E-02
  rms(prec ) = 0.21907E-02
  weight for this iteration     100.00

 eigenvalues of (default mixing * dielectric matrix)
  average eigenvalue GAMMA=   1.9926
  3.1774  2.3375  2.2241  2.2241  0.9298  1.0629

[...]

--------------------------------------- Iteration      1(  12)  ---------------------------------------

 eigenvalue-minimisations  :    42
 total energy-change (2. order) :-0.6437948E-05  (-0.1220502E-05)
 number of electron      63.9999998 magnetization
 augmentation part       -3.3737404 magnetization

 Free energy of the ion-electron system (eV)
  alpha Z        PSCENC =        26.34690810
  Ewald energy   TEWEN  =     -1815.55263189
  -Hartree energ DENC   =      -139.65062373
  -exchange      EXHF   =         0.00000000
  -V(xc)+E(xc)   XCENC  =      -142.27951395
  PAW double counting   =      7331.69060730    -7052.29624239
  entropy T*S    EENTRO =        -0.00000000
  eigenvalues    EBANDS =        75.99412090
  atomic energy  EATOM  =      1649.06495283
  Solvation  Ediel_sol  =         0.00000000
  free energy    TOTEN  =       -66.68242284 eV

  energy without entropy =      -66.68242284  energy(sigma->0) =      -66.68242284

 average (electrostatic) potential at core
  the test charge radii are     0.9892
  (the norm of the test charge is              1.0000)
       1 -83.0016       2 -83.0066       3 -83.0141       4 -82.9955       5 -83.0141
       6 -82.9955       7 -82.9971       8 -83.0118       9 -83.0118      10 -82.9971
      11 -82.9955      12 -83.0141      13 -82.9955      14 -83.0141      15 -83.0066
      16 -83.0016

 E-fermi :   6.2129     XC(G=0):  -9.1343     alpha+bet :-11.7324

 val. band max:        5.9557394429   @ k =   0.0000   0.0000   0.0000
 cond. band min:       6.5359052170   @ k =   0.0000   0.0000   0.0000
 fundamental gap:      0.5801657741
 Fermi energy:         6.2128667835

 k-point     1 :       0.0000    0.0000    0.0000
  band No.  band energies     occupation
      1      -5.9520      2.00000
      2      -3.6796      2.00000
      3      -3.6534      2.00000
      4      -3.6413      2.00000
      5      -3.6406      2.00000
      6      -1.9098      2.00000
      7      -1.8618      2.00000
      8      -1.8612      2.00000
      9      -1.8608      2.00000
     10      -1.8500      2.00000
     11      -1.8247      2.00000
     12      -1.0433      2.00000
     13      -1.0203      2.00000
     14      -1.0168      2.00000
     15      -0.9857      2.00000
     16       3.0394      2.00000
     17       3.0569      2.00000
     18       3.0585      2.00000
     19       3.0636      2.00000
     20       3.0656      2.00000
     21       3.0740      2.00000
     22       4.6513      2.00000
     23       4.6987      2.00000
     24       4.7027      2.00000
     25       4.7128      2.00000
     26       4.7165      2.00000
     27       4.7251      2.00000
     28       4.7288      2.00000
     29       4.7495      2.00000
     30       5.8814      2.00000
     31       5.9177      2.00000
     32       5.9557      2.00000
     33       6.5359      0.00000
     34       6.5394      0.00000
     35       6.5521      0.00000
     36       6.5738      0.00000
     37       6.5743      0.00000
     38       6.5786      0.00000
     39       7.3344      0.00000
     40       7.3430      0.00000
     41       7.3431      0.00000
     42       7.3510      0.00000

 soft charge-density along one line, spin component           1
         0         1         2         3         4         5         6         7         8         9
 total charge-density along one line

------------------------ aborting loop because EDIFF is reached ----------------------------------------

  FORCE on cell =-STRESS in cart. coord.  units (eV):
  Direction    XX          YY          ZZ          XY          YZ          ZX
  Alpha Z    26.34691    26.34691    26.34691
  Ewald    -605.13037  -605.21405  -605.21405     3.29265     0.02518     3.29265
  Hartree    46.56125    46.54465    46.54465     0.36275    -0.00321     0.36275
  E(xc)    -205.07153  -205.07080  -205.07080    -0.02834    -0.00063    -0.02834
  Local    -246.24222  -246.14660  -246.14660    -3.47151    -0.02363    -3.47151
  n-local   602.78974   602.77412   602.77411     0.68401     0.01445     0.68402
  augment   -85.73463   -85.73367   -85.73367    -0.03280    -0.00158    -0.03280
  Kinetic   481.70662   481.70818   481.70814    -0.37617     0.01237    -0.37617
  Fock        0.00000     0.00000     0.00000     0.00000     0.00000     0.00000
  Total      15.22576    15.20871    15.20871     0.43059     0.02295     0.43059
  in kB      74.58043    74.49689    74.49689     2.10918     0.11241     2.10918

 VOLUME and BASIS-vectors are now :
  energy-cutoff  :      600.00
  volume of cell :      327.09
      direct lattice vectors                 reciprocal lattice vectors
     0.000000000  5.468626625  5.468626625    -0.091430634  0.091430634  0.091430634
     5.468626625  0.000000000  5.468626625     0.091430634 -0.091430634  0.091430634
     5.468626625  5.468626625  0.000000000     0.091430634  0.091430634 -0.091430634

  length of vectors
     7.733805941  7.733805941  7.733805941     0.158362504  0.158362504  0.158362504

 FORCES acting on ions
    electron-ion (+dipol)            ewald-force                    non-local-force                 convergence-correction
   -.916E-01 0.119E+01 0.119E+01   0.653E-01 -.952E+00 -.952E+00   -.327E-02 -.507E+00 -.507E+00   0.311E-03 -.453E-03 -.453E-03
   0.132E+00 -.404E+00 -.404E+00   -.101E+00 0.332E+00 0.332E+00   -.136E-01 0.699E-01 0.699E-01   -.336E-03 0.295E-03 0.295E-03
   -.222E+00 0.168E+00 -.536E-01   0.218E+00 -.179E+00 0.131E-01   0.192E-01 -.202E-01 0.405E-01   0.414E-03 -.244E-03 -.464E-03
   0.235E+00 -.618E+00 -.424E+00   -.222E+00 0.427E+00 0.244E+00   -.285E-01 0.132E+00 0.893E-01   -.421E-03 0.384E-03 0.611E-03
   -.222E+00 -.536E-01 0.168E+00   0.218E+00 0.131E-01 -.179E+00   0.192E-01 0.405E-01 -.202E-01   0.414E-03 -.464E-03 -.244E-03
   0.235E+00 -.424E+00 -.618E+00   -.222E+00 0.244E+00 0.427E+00   -.285E-01 0.893E-01 0.132E+00   -.421E-03 0.611E-03 0.384E-03
   -.990E+00 0.594E+00 0.594E+00   0.722E+00 -.517E+00 -.517E+00   0.339E+00 -.223E+00 -.223E+00   0.499E-03 -.506E-03 -.506E-03
   0.101E+01 0.506E+00 0.506E+00   -.749E+00 -.370E+00 -.370E+00   -.348E+00 -.262E+00 -.262E+00   -.512E-03 0.354E-03 0.354E-03
   -.101E+01 -.506E+00 -.506E+00   0.749E+00 0.370E+00 0.370E+00   0.348E+00 0.262E+00 0.262E+00   0.512E-03 -.354E-03 -.354E-03
   0.990E+00 -.594E+00 -.594E+00   -.722E+00 0.517E+00 0.517E+00   -.339E+00 0.223E+00 0.223E+00   -.499E-03 0.506E-03 0.506E-03
   -.235E+00 0.424E+00 0.618E+00   0.222E+00 -.244E+00 -.427E+00   0.285E-01 -.893E-01 -.132E+00   0.421E-03 -.611E-03 -.384E-03
   0.222E+00 0.536E-01 -.168E+00   -.218E+00 -.131E-01 0.179E+00   -.192E-01 -.405E-01 0.202E-01   -.414E-03 0.464E-03 0.244E-03
   -.235E+00 0.618E+00 0.424E+00   0.222E+00 -.427E+00 -.244E+00   0.285E-01 -.132E+00 -.893E-01   0.421E-03 -.384E-03 -.611E-03
   0.222E+00 -.168E+00 0.536E-01   -.218E+00 0.179E+00 -.131E-01   -.192E-01 0.202E-01 -.405E-01   -.414E-03 0.244E-03 0.464E-03
   -.132E+00 0.404E+00 0.404E+00   0.101E+00 -.332E+00 -.332E+00   0.136E-01 -.699E-01 -.699E-01   0.336E-03 -.295E-03 -.295E-03
   0.916E-01 -.119E+01 -.119E+01   -.653E-01 0.952E+00 0.952E+00   0.327E-02 0.507E+00 0.507E+00   -.311E-03 0.453E-03 0.453E-03
   0.324E-12 -.639E-12 -.516E-12   0.228E-14 -.333E-14 0.344E-14   0.147E-16 -.111E-15 0.000E+00   -.377E-13 -.457E-14 -.446E-14

 POSITION                                       TOTAL-FORCE (eV/Angst)
      0.00000      0.02121      0.02121        -0.029304     -0.268186     -0.268186
      0.00000      2.73431      2.73431         0.017092     -0.001962     -0.001962
      2.73431      0.00000      2.73431         0.015027     -0.031612     -0.000571
      2.73431      2.73431      5.46863        -0.015594     -0.058796     -0.090579
      2.73431      2.73431      0.00000         0.015027     -0.000571     -0.031612
      2.73431      5.46863      2.73431        -0.015594     -0.090579     -0.058796
      5.46863      2.73431      2.73431         0.072427     -0.147506     -0.147506
      5.46863      5.46863      5.46863        -0.084838     -0.125136     -0.125136
      1.36716      1.36716      1.36716         0.084838      0.125136      0.125136
      1.36716      4.10147      4.10147        -0.072427      0.147506      0.147506
      4.10147      1.36716      4.10147         0.015594      0.090579      0.058796
      4.10147      4.10147      6.83578        -0.015027      0.000571      0.031612
      4.10147      4.10147      1.36716         0.015594      0.058796      0.090579
      4.10147      6.83578      4.10147        -0.015027      0.031612      0.000571
      6.83578      4.10147      4.10147        -0.017092      0.001962      0.001962
      6.83578      6.81457      6.81457         0.029304      0.268186      0.268186
    total drift:                                0.000000     -0.000000     -0.000000

  FREE ENERGIE OF THE ION-ELECTRON SYSTEM (eV)
  free  energy   TOTEN  =       -66.68242284 eV

  energy  without entropy=      -66.68242284  energy(sigma->0) =      -66.68242284